4 
5  11 28 43 58 
6  13 28 43 55 
7  10 25 40 55 
8  10 25 40 55 
9  10 25 40 55 
10  10 25 40 55 
11  10 25 40 55 
12  10 25 40 55 
13  10 25 40 55 
14  10 25 40 54 
15  09 24 39 54 
16  09 24 39 54 
17  09 24 39 54 
18  09 24 39 55 
19  10 25 40 57 
20  12 27 42 57 
21  12 27 42 57 
22  12 27 42 58 
23  17 34 
0 
